* ENCODING=ISO-8859-1
NAME          CPLEX
ROWS
 N  obj1    
 G  c1      
 G  c2      
 G  c3      
 G  c4      
 G  c5      
 G  c6      
 G  c7      
 G  c8      
 G  c9      
 G  c10     
 G  c11     
 G  c12     
 G  c13     
 G  c14     
 G  c15     
 G  c16     
 G  c17     
 G  c18     
 G  c19     
 G  c20     
 G  c21     
 G  c22     
 G  c23     
 G  c24     
 G  c25     
 G  c26     
 G  c27     
 G  c28     
 G  c29     
 G  c30     
COLUMNS
    MARK0000  'MARKER'                 'INTORG'
    x1        obj1                            1
    x1        c1                            338
    x1        c14                           357
    x2        obj1                            1
    x2        c9                            500
    x2        c10                           458
    x2        c12                           148
    x2        c14                           368
    x2        c18                           637
    x2        c23                           163
    x2        c26                           738
    x3        obj1                            1
    x3        c26                           935
    x4        obj1                            1
    x4        c26                           188
    x5        obj1                            1
    x5        c13                           858
    x5        c19                           391
    x5        c22                           165
    x6        obj1                            1
    x6        c3                            765
    x6        c16                           518
    x7        obj1                            1
    x7        c4                            865
    x7        c6                            212
    x7        c12                           908
    x7        c17                           503
    x7        c19                           364
    x7        c20                           499
    x7        c29                           593
    x7        c30                           979
    x8        obj1                            1
    x8        c7                            129
    x8        c24                           905
    x9        obj1                            1
    x10       obj1                            1
    x10       c4                            775
    x10       c16                           213
    x10       c18                           618
    x10       c30                           391
    x11       obj1                            1
    x11       c8                            912
    x11       c9                            477
    x11       c14                           459
    x11       c16                           677
    x11       c20                           670
    x11       c25                           116
    x12       obj1                            1
    x12       c14                           276
    x12       c19                           997
    x12       c30                           183
    x13       obj1                            1
    x13       c15                           144
    x13       c21                           876
    x13       c22                           628
    x14       obj1                            1
    x14       c22                           282
    x14       c24                           877
    x14       c27                           468
    x15       obj1                            1
    x15       c3                            165
    x15       c12                           285
    x15       c23                           794
    x16       obj1                            1
    x16       c4                            194
    x16       c10                           909
    x16       c26                           167
    x16       c27                           239
    x16       c28                           894
    x16       c30                           109
    x17       obj1                            1
    x17       c14                           815
    x18       obj1                            1
    x18       c7                            714
    x18       c15                           163
    x19       obj1                            1
    x19       c4                            160
    x19       c20                           626
    x19       c24                           979
    x20       obj1                            1
    x20       c20                           792
    x20       c23                           659
    x20       c28                           115
    x21       obj1                            1
    x21       c14                           527
    x21       c16                           476
    x21       c24                           851
    x21       c30                           796
    x22       obj1                            1
    x22       c7                            779
    x22       c16                           496
    x22       c19                           472
    x23       obj1                            1
    x23       c10                           770
    x23       c12                           832
    x23       c15                           172
    x23       c24                           564
    x24       obj1                            1
    x24       c5                            793
    x24       c17                           847
    x24       c24                           388
    x25       obj1                            1
    x25       c15                           474
    x25       c18                           844
    x25       c21                           179
    x26       obj1                            1
    x26       c1                            359
    x27       obj1                            1
    x27       c3                            300
    x27       c10                           785
    x27       c25                           328
    x28       obj1                            1
    x28       c2                            828
    x28       c9                            124
    x28       c28                           687
    x29       obj1                            1
    x29       c6                            181
    x29       c9                            373
    x30       obj1                            1
    x30       c8                            841
    x30       c10                           561
    x30       c17                           518
    x30       c28                           457
    x31       obj1                            1
    x31       c2                            979
    x31       c3                            791
    x31       c8                            681
    x31       c28                           348
    x32       obj1                            1
    x32       c20                           905
    x33       obj1                            1
    x33       c19                           125
    x33       c21                           836
    x33       c26                           245
    x34       obj1                            1
    x34       c5                            559
    x35       obj1                            1
    x35       c5                            152
    x35       c6                            861
    x35       c24                           226
    x36       obj1                            1
    x36       c3                            127
    x36       c13                           908
    x36       c15                           922
    x36       c24                           561
    x37       obj1                            1
    x37       c2                            961
    x37       c11                           946
    x37       c26                           139
    x38       obj1                            1
    x38       c3                            213
    x38       c5                            809
    x38       c10                           541
    x38       c15                           761
    x39       obj1                            1
    x39       c2                            469
    x39       c6                            422
    x39       c7                            262
    x40       obj1                            1
    x40       c11                           889
    x40       c15                           468
    x40       c22                           941
    x41       obj1                            1
    x41       c27                           268
    x42       obj1                            1
    x43       obj1                            1
    x43       c11                           709
    x44       obj1                            1
    x44       c25                           259
    x45       obj1                            1
    x45       c7                            113
    x45       c22                           704
    x46       obj1                            1
    x46       c2                            592
    x46       c8                            857
    x46       c12                           672
    x46       c23                           633
    x47       obj1                            1
    x47       c26                           679
    x48       obj1                            1
    x48       c29                           156
    x49       obj1                            1
    x49       c4                            546
    x49       c11                           523
    x49       c14                           761
    x49       c19                           711
    x49       c20                           411
    x49       c30                           964
    x50       obj1                            1
    x50       c12                           167
    x50       c17                           544
    x50       c21                           731
    x51       obj1                            1
    x51       c10                           629
    x51       c29                           912
    x52       obj1                            1
    x52       c2                            366
    x52       c3                            254
    x52       c8                            237
    x53       obj1                            1
    x53       c5                            274
    x53       c6                            794
    x53       c8                            142
    x53       c18                           278
    x53       c28                           434
    x54       obj1                            1
    x54       c18                           770
    x55       obj1                            1
    x55       c1                            234
    x55       c8                            217
    x55       c11                           774
    x55       c17                           537
    x55       c21                           881
    x55       c28                           600
    x56       obj1                            1
    x56       c2                            298
    x56       c3                            368
    x56       c13                           847
    x56       c14                           105
    x56       c23                           770
    x56       c30                           945
    x57       obj1                            1
    x57       c2                            484
    x57       c13                           186
    x58       obj1                            1
    x58       c1                            402
    x58       c6                            208
    x58       c19                           331
    x58       c24                           379
    x58       c27                           899
    x59       obj1                            1
    x59       c2                            141
    x59       c10                           661
    x59       c26                           851
    x60       obj1                            1
    x60       c1                            540
    x60       c15                           431
    MARK0001  'MARKER'                 'INTEND'
RHS
    rhs       c1                            937
    rhs       c2                           2559
    rhs       c3                           1492
    rhs       c4                           1270
    rhs       c5                           1294
    rhs       c6                           1339
    rhs       c7                            999
    rhs       c8                           1944
    rhs       c9                            737
    rhs       c10                          2657
    rhs       c11                          1921
    rhs       c12                          1506
    rhs       c13                          1400
    rhs       c14                          1834
    rhs       c15                          1768
    rhs       c16                          1190
    rhs       c17                          1475
    rhs       c18                          1574
    rhs       c19                          1696
    rhs       c20                          1952
    rhs       c21                          1752
    rhs       c22                          1360
    rhs       c23                          1510
    rhs       c24                          2865
    rhs       c25                           352
    rhs       c26                          1971
    rhs       c27                           937
    rhs       c28                          1768
    rhs       c29                           831
    rhs       c30                          2184
BOUNDS
 LI bnd       x1        0
 LI bnd       x2        0
 LI bnd       x3        0
 LI bnd       x4        0
 LI bnd       x5        0
 LI bnd       x6        0
 LI bnd       x7        0
 LI bnd       x8        0
 LI bnd       x9        0
 LI bnd       x10       0
 LI bnd       x11       0
 LI bnd       x12       0
 LI bnd       x13       0
 LI bnd       x14       0
 LI bnd       x15       0
 LI bnd       x16       0
 LI bnd       x17       0
 LI bnd       x18       0
 LI bnd       x19       0
 LI bnd       x20       0
 LI bnd       x21       0
 LI bnd       x22       0
 LI bnd       x23       0
 LI bnd       x24       0
 LI bnd       x25       0
 LI bnd       x26       0
 LI bnd       x27       0
 LI bnd       x28       0
 LI bnd       x29       0
 LI bnd       x30       0
 LI bnd       x31       0
 LI bnd       x32       0
 LI bnd       x33       0
 LI bnd       x34       0
 LI bnd       x35       0
 LI bnd       x36       0
 LI bnd       x37       0
 LI bnd       x38       0
 LI bnd       x39       0
 LI bnd       x40       0
 LI bnd       x41       0
 LI bnd       x42       0
 LI bnd       x43       0
 LI bnd       x44       0
 LI bnd       x45       0
 LI bnd       x46       0
 LI bnd       x47       0
 LI bnd       x48       0
 LI bnd       x49       0
 LI bnd       x50       0
 LI bnd       x51       0
 LI bnd       x52       0
 LI bnd       x53       0
 LI bnd       x54       0
 LI bnd       x55       0
 LI bnd       x56       0
 LI bnd       x57       0
 LI bnd       x58       0
 LI bnd       x59       0
 LI bnd       x60       0
ENDATA
